p wcnf 133 266 267 
1 -119 39 0 
1 85 78 0 
1 2 -7 0 
1 96 70 0 
1 -89 101 0 
1 -102 57 0 
1 19 98 0 
1 -28 61 0 
1 105 37 0 
1 115 -27 0 
1 -9 -46 0 
1 30 32 0 
1 117 -49 0 
1 -96 7 0 
1 17 70 0 
1 2 -55 0 
1 -26 85 0 
1 -19 -46 0 
1 68 96 0 
1 -124 -68 0 
1 35 98 0 
1 73 109 0 
1 10 112 0 
1 93 34 0 
1 57 35 0 
1 17 107 0 
1 -72 -133 0 
1 -41 -107 0 
1 -68 95 0 
1 83 -13 0 
1 33 88 0 
1 -6 46 0 
1 -47 30 0 
1 -68 -62 0 
1 114 -32 0 
1 -58 127 0 
1 96 -19 0 
1 54 -108 0 
1 16 -65 0 
1 -94 27 0 
1 -30 20 0 
1 18 -28 0 
1 65 -53 0 
1 -36 48 0 
1 73 71 0 
1 -108 -37 0 
1 -127 55 0 
1 82 -91 0 
1 -7 -6 0 
1 96 -20 0 
1 -61 46 0 
1 15 105 0 
1 -15 57 0 
1 16 -80 0 
1 -131 91 0 
1 119 -116 0 
1 107 -127 0 
1 41 -15 0 
1 108 -95 0 
1 -18 20 0 
1 -105 59 0 
1 103 -122 0 
1 -86 97 0 
1 -82 77 0 
1 32 108 0 
1 -26 -34 0 
1 -60 -69 0 
1 50 112 0 
1 64 22 0 
1 16 73 0 
1 -17 82 0 
1 -76 -64 0 
1 -89 -92 0 
1 51 -36 0 
1 -43 100 0 
1 -112 69 0 
1 121 63 0 
1 -120 -26 0 
1 68 -131 0 
1 -31 -115 0 
1 -45 -27 0 
1 92 -72 0 
1 -78 -69 0 
1 95 46 0 
1 -118 92 0 
1 133 -80 0 
1 109 20 0 
1 -43 -17 0 
1 89 -86 0 
1 122 -101 0 
1 -60 11 0 
1 -23 25 0 
1 112 -90 0 
1 18 -33 0 
1 -108 -48 0 
1 -42 -18 0 
1 -121 132 0 
1 -3 57 0 
1 -111 -69 0 
1 129 -6 0 
1 -52 85 0 
1 50 -119 0 
1 -111 -60 0 
1 38 -26 0 
1 114 62 0 
1 -119 114 0 
1 -122 -78 0 
1 -96 -92 0 
1 -127 -36 0 
1 78 76 0 
1 -4 34 0 
1 132 -33 0 
1 -105 28 0 
1 121 4 0 
1 -85 -90 0 
1 -69 92 0 
1 -131 62 0 
1 -20 75 0 
1 -120 15 0 
1 -97 -91 0 
1 15 -34 0 
1 88 -19 0 
1 13 -121 0 
1 -55 8 0 
1 -108 1 0 
1 27 103 0 
1 71 15 0 
1 91 105 0 
1 34 53 0 
1 128 -95 0 
1 -51 -81 0 
1 -67 10 0 
1 131 39 0 
1 42 55 0 
1 77 33 0 
1 -8 -23 0 
1 -45 9 0 
1 -109 114 0 
1 13 -63 0 
1 36 41 0 
1 -48 -78 0 
1 -1 79 0 
1 -44 -74 0 
1 86 -90 0 
1 -107 -2 0 
1 14 -87 0 
1 -105 -31 0 
1 -29 119 0 
1 105 -16 0 
1 -23 -65 0 
1 -93 -19 0 
1 -24 -97 0 
1 69 -4 0 
1 92 -7 0 
1 68 -79 0 
1 52 -21 0 
1 -3 -50 0 
1 124 -98 0 
1 37 -111 0 
1 95 -51 0 
1 -41 -108 0 
1 -7 121 0 
1 1 12 0 
1 -20 -76 0 
1 -45 -124 0 
1 -24 72 0 
1 -92 -33 0 
1 131 7 0 
1 -52 15 0 
1 112 -47 0 
1 -95 89 0 
1 7 -105 0 
1 91 -111 0 
1 -114 -70 0 
1 -40 32 0 
1 -80 -65 0 
1 125 65 0 
1 42 -10 0 
1 -91 -131 0 
1 -88 -53 0 
1 16 26 0 
1 -6 85 0 
1 -54 122 0 
1 85 30 0 
1 11 79 0 
1 67 -69 0 
1 -14 129 0 
1 -106 -9 0 
1 -29 -51 0 
1 75 36 0 
1 -85 22 0 
1 -128 100 0 
1 -76 72 0 
1 34 -6 0 
1 -63 5 0 
1 -95 124 0 
1 104 112 0 
1 -60 -10 0 
1 84 30 0 
1 -97 -110 0 
1 67 -5 0 
1 33 18 0 
1 21 -125 0 
1 -24 -37 0 
1 16 9 0 
1 -10 -34 0 
1 52 -95 0 
1 -49 -101 0 
1 -82 33 0 
1 101 -126 0 
1 8 -71 0 
1 74 60 0 
1 67 37 0 
1 -33 21 0 
1 -99 1 0 
1 103 112 0 
1 -57 16 0 
1 112 -6 0 
1 -62 -104 0 
1 63 118 0 
1 -119 -26 0 
1 87 -8 0 
1 119 -15 0 
1 -46 73 0 
1 1 -70 0 
1 127 94 0 
1 -71 -1 0 
1 -108 8 0 
1 17 -25 0 
1 -68 -18 0 
1 75 -126 0 
1 -62 -6 0 
1 120 -78 0 
1 62 -45 0 
1 -46 -19 0 
1 -88 121 0 
1 -8 -129 0 
1 -117 -48 0 
1 44 -26 0 
1 77 1 0 
1 13 5 0 
1 -74 9 0 
1 131 -90 0 
1 -125 63 0 
1 -8 116 0 
1 90 73 0 
1 64 121 0 
1 51 -54 0 
1 1 -83 0 
1 -67 -41 0 
1 -115 81 0 
1 61 116 0 
1 -102 -121 0 
1 27 -23 0 
1 -2 5 0 
1 -112 16 0 
1 -44 -123 0 
1 79 116 0 
1 38 -107 0 
1 -81 -116 0 
1 -40 26 0 
1 -46 52 0 
1 126 -104 0 
1 116 -31 0 
1 -24 94 0 
1 117 -36 0 
